# Solution for model STEIN27
# Objective value = 18
0001 0
0002 0
0003 0
0004 1
0005 1
0006 1
0007 1
0008 0
0009 1
0010 1
0011 1
0012 1
0013 1
0014 1
0015 0
0016 1
0017 1
0018 1
0019 1
0020 1
0021 0
0022 1
0023 0
0024 0
0025 1
0026 0
0027 1
